(set-logic BV) (define-fun origCir ((n133 Bool) (n105 Bool) (n127 Bool) (n116 Bool) (n148 Bool)) Bool (and (xor (and (and (xor n127 n133) n105) n116) n133) (not n148))) (synth-fun skel ((n133 Bool) (n105 Bool) (n127 Bool) (n116 Bool) (n148 Bool)) Bool) (declare-var n133 Bool) (declare-var n105 Bool) (declare-var n127 Bool) (declare-var n116 Bool) (declare-var n148 Bool) (constraint (= (origCir n133 n105 n127 n116 n148) (skel n133 n105 n127 n116 n148))) (check-synth)
